61 126 119 15 23 48 108 24 186 193 173 128 96 20 132 102 196 0 172 106 83 144 53 38 40 64 42 58 154 18 151 69 169 190 146 127 198 199 124 78 67 150 188 182 91 94 111 41 57 5 135 99 185 97 159 51 92 4 60 11 36 90 85 195 52 46 1 54 191 140 49 73 197 43 34 44 130 3 175 109 164 184 32 62 194 10 166 161 160 100 93 74 110 81 12 122 66 174 89 116 131 171 2 123 84 105 179 70 180 133 117 156 137 13 165 71 153 155 56 141 101 86 142 63 177 88 168 16 139 138 77 30 35 167 143 9 14 162 39 72 7 192 148 6 37 134 158 118 25 55 114 157 113 19 50 82 121 68 149 87 129 80 125 26 21 22 31 75 152 79 65 107 103 29 181 8 163 17 95 104 120 76 112 115 27 47 170 45 189 98 183 33 178 59 147 176 28 145 136 187